p tw 20 56
1 16
1 17
1 4
1 5
1 10
2 12
2 14
2 3
2 7
2 8
11 14
11 17
11 18
11 20
12 17
12 18
13 14
13 17
13 18
14 20
15 18
3 12
3 15
3 18
3 20
3 5
3 7
4 12
4 13
4 17
4 18
4 19
4 20
4 6
4 9
5 11
5 13
5 15
5 16
5 6
6 12
6 13
6 15
6 18
7 11
7 14
7 18
7 19
8 13
8 14
8 15
8 17
9 16
9 20
10 13
10 16
